db/data/1113318198819719786245131264820754318.z3.out
sat
-------------------
1892.295442723
